153 189 285 371 378 526 535 574 713 795
0 516 371 172 904 295 663 712 16 540
371 507 653 516 762 701 436 828 583 833
16 66 547 477 97 124 334 222 111 447
189 828 753 651 570 288 894 502 379 324
148 0 205 245 853 42 284 833 215 153
66 765 458 104 651 808 712 331 245 415
436 540 701 799 488 581 765 653 867 477
288 371 828 902 688 762 574 415 502 392
104 392 148 741 205 457 799 888 653 274
